#Sets

#(V) The set of tasks; indexed by (i or j)
set TASKS :=
1
2
3
4
5
6
7
8
9
10
11
12
13
14
15
16
17
18
19
20
21
22
23
24
25 ;

#(KD) The set of definite stations
set DEF_STATIONS :=
1
2
3
4
5 ;

#(KP) The set of probable stations
set PROB_STATIONS :=
6
7
8
9
10
11
12
13
14
15
16
17
18
20
21
22;


#(K) The set of all possible stations (Defined in .mod as Union of DEF_STATIONS and PROB_STATIONS); indexed by (k)


#(R) The set of all direct precednece relations
set RELATIONS :=
(1,3)
(2,3)
(3,4)
(4,5)
(4,8)
(5,6)
(6,7)
(6,10)
(7,11)
(7,12)
(8,9)
(8,11)
(9,13)
(9,10)
(11,13)
(12,15)
(13,14)
(14,16)
(14,19)
(14,20)
(15,17)
(15,22)
(16,18)
(17,18)
(17,23)
(18,25)
(19,22)
(20,21)
(20,25)
(21,22)
(21,24)
(23,25) ;


#(P_i) The set of all direct and indirect predecessors for task i.
#Defined as a separate set for each task i
set PREDECESSORS [1] := ;

set PREDECESSORS [2] := ;

set PREDECESSORS [3] :=
1
2 ;

set PREDECESSORS [4] :=
1
2
3 ;

set PREDECESSORS [5] :=
1
2
3
4 ;

set PREDECESSORS [6] :=
1
2
3
4
5 ;

set PREDECESSORS [7] :=
1
2
3
4
5
6 ;

set PREDECESSORS [8] :=
1
2
3
4 ;

set PREDECESSORS [9] :=
1
2
3
4
8 ;

set PREDECESSORS [10] :=
1
2
3
4
5
6
8
9 ;

set PREDECESSORS [11] :=
1
2
3
4
5
6
7
8 ;

set PREDECESSORS [12] :=
1
2
3
4
5
6
7 ;

set PREDECESSORS [13] :=
1
2
3
4
5
6
7
8
9
11 ;

set PREDECESSORS [14] :=
1
2
3
4
5
6
7
8
9
11
13 ;

set PREDECESSORS [15] :=
1
2
3
4
5
6
7
12 ;

set PREDECESSORS [16] :=
1
2
3
4
5
6
7
8
9
11
13
14 ;

set PREDECESSORS [17] :=
1
2
3
4
5
6
7
12
15 ;

set PREDECESSORS [18] :=
1
2
3
4
5
6
7
8
9
11
12
13
14
15
16
17 ;

set PREDECESSORS [19] :=
1
2
3
4
5
6
7
8
9
11
13
14 ;

set PREDECESSORS [20] :=
1
2
3
4
5
6
7
8
9
11
13
14 ;

set PREDECESSORS [21] :=
1
2
3
4
5
6
7
8
9
11
13
14
20 ;

set PREDECESSORS [22] :=
1
2
3
4
5
6
7
8
9
11
12
13
14
15
19
20
21 ;

set PREDECESSORS [23] :=
1
2
3
4
5
6
7
12
15
17 ;

set PREDECESSORS [24] :=
1
2
3
4
5
6
7
8
9
11
13
14
20
21 ;

set PREDECESSORS [25] :=
1
2
3
4
5
6
7
8
9
11
12
13
14
15
16
17
18
20
23 ;


#(F_i) The set of all direct and indirect successors for task i
#Defined as a separate set for each task i
set SUCCESSORS [1] :=
3
4
5
6
7
8
9
10
11
12
13
14
15
16
17
18
19
20
21
22
23
24
25 ;

set SUCCESSORS [2] :=
3
4
5
6
7
8
9
10
11
12
13
14
15
16
17
18
19
20
21
22
23
24
25 ;

set SUCCESSORS [3] :=
4
5
6
7
8
9
10
11
12
13
14
15
16
17
18
19
20
21
22
23
24
25 ;

set SUCCESSORS [4] :=
5
6
7
8
9
10
11
12
13
14
15
16
17
18
19
20
21
22
23
24
25 ;

set SUCCESSORS [5] :=
6
7
10
11
12
13
14
15
16
17
18
19
20
21
22
23
24
25 ;

set SUCCESSORS [6] :=
7
10
11
12
13
14
15
16
17
18
19
20
21
22
23
24
25 ;

set SUCCESSORS [7] :=
11
12
13
14
15
16
17
18
19
20
21
22
23
24
25 ;

set SUCCESSORS [8] :=
9
11
13
14
16
18
19
20
21
22
24
25 ;

set SUCCESSORS [9] :=
13
14
16
18
19
20
21
22
24
25 ;

set SUCCESSORS [10] := ;

set SUCCESSORS [11] :=
13
14
16
18
19
20
21
22
24
25 ;

set SUCCESSORS [12] :=
15
17
18
22
23
25 ;

set SUCCESSORS [13] :=
14
16
18
19
20
21
22
24
25 ;

set SUCCESSORS [14] :=
16
18
19
20
21
22
24
25 ;

set SUCCESSORS [15] :=
17
18
22
23
25 ;

set SUCCESSORS [16] :=
18
25 ;

set SUCCESSORS [17] :=
18
23
25 ;

set SUCCESSORS [18] :=
25;

set SUCCESSORS [19] :=
22 ;

set SUCCESSORS [20] :=
21
22
24
25 ;

set SUCCESSORS [21] :=
22
24 ;

set SUCCESSORS [22] := ;

set SUCCESSORS [23] :=
25 ;

set SUCCESSORS [24] := ;

set SUCCESSORS [25] := ;


#(FS_i) The set of stations to which task i is feasibly assignable
#Defined as a separate set for each task i
set FEASIBLE_STATIONS [1] :=
1  2  3  4  5  6  7  8  9 10 11 12 13 14 15 16 17 18 19 20 21 ;

set FEASIBLE_STATIONS [2] :=
1  2  3  4  5  6  7  8  9 10 11 12 13 14 15 16 17 18 19 20 21 ;

set FEASIBLE_STATIONS [3] :=
1  2  3  4  5  6  7  8  9 10 11 12 13 14 15 16 17 18 19 20 21 ;

set FEASIBLE_STATIONS [4] :=
1  2  3  4  5  6  7  8  9 10 11 12 13 14 15 16 17 18 19 20 21 ;

set FEASIBLE_STATIONS [5] :=
2  3  4  5  6  7  8  9 10 11 12 13 14 15 16 17 18 19 20 21 22 ;

set FEASIBLE_STATIONS [6] :=
2  3  4  5  6  7  8  9 10 11 12 13 14 15 16 17 18 19 20 21 22 ;

set FEASIBLE_STATIONS [7] :=
2  3  4  5  6  7  8  9 10 11 12 13 14 15 16 17 18 19 20 21 22 ;

set FEASIBLE_STATIONS [8] :=
2  3  4  5  6  7  8  9 10 11 12 13 14 15 16 17 18 19 20 21 22 23 ;

set FEASIBLE_STATIONS [9] :=
2  3  4  5  6  7  8  9 10 11 12 13 14 15 16 17 18 19 20 21 22 23 24 ;

set FEASIBLE_STATIONS [10] :=
2  3  4  5  6  7  8  9 10 11 12 13 14 15 16 17 18 19 20 21 22 23 24 25 ;

set FEASIBLE_STATIONS [11] :=
3  4  5  6  7  8  9 10 11 12 13 14 15 16 17 18 19 20 21 22 23 24 ;

set FEASIBLE_STATIONS [12] :=
2  3  4  5  6  7  8  9 10 11 12 13 14 15 16 17 18 19 20 21 22 23 24 ;

set FEASIBLE_STATIONS [13] :=
3  4  5  6  7  8  9 10 11 12 13 14 15 16 17 18 19 20 21 22 23 24 ;

set FEASIBLE_STATIONS [14] :=
3  4  5  6  7  8  9 10 11 12 13 14 15 16 17 18 19 20 21 22 23 24 ;

set FEASIBLE_STATIONS [15] :=
2  3  4  5  6  7  8  9 10 11 12 13 14 15 16 17 18 19 20 21 22 23 24 ;

set FEASIBLE_STATIONS [16] :=
3  4  5  6  7  8  9 10 11 12 13 14 15 16 17 18 19 20 21 22 23 24 25 ;

set FEASIBLE_STATIONS [17] :=
3  4  5  6  7  8  9 10 11 12 13 14 15 16 17 18 19 20 21 22 23 24 25 ;

set FEASIBLE_STATIONS [18] :=
4  5  6  7  8  9 10 11 12 13 14 15 16 17 18 19 20 21 22 23 24 25 ;

set FEASIBLE_STATIONS [19] :=
3  4  5  6  7  8  9 10 11 12 13 14 15 16 17 18 19 20 21 22 23 24 25 ;

set FEASIBLE_STATIONS [20] :=
3  4  5  6  7  8  9 10 11 12 13 14 15 16 17 18 19 20 21 22 23 24 ;

set FEASIBLE_STATIONS [21] :=
3  4  5  6  7  8  9 10 11 12 13 14 15 16 17 18 19 20 21 22 23 24 25 ;

set FEASIBLE_STATIONS [22] :=
4  5  6  7  8  9 10 11 12 13 14 15 16 17 18 19 20 21 22 23 24 25 ;

set FEASIBLE_STATIONS [23] :=
3  4  5  6  7  8  9 10 11 12 13 14 15 16 17 18 19 20 21 22 23 24 25 ;

set FEASIBLE_STATIONS [24] :=
4  5  6  7  8  9 10 11 12 13 14 15 16 17 18 19 20 21 22 23 24 25 ;

set FEASIBLE_STATIONS [25] :=
5  6  7  8  9 10 11 12 13 14 15 16 17 18 19 20 21 22 23 24 25 ;


#(FT_k) The set of tasks that are feasibly assignable to station k
#Defined as a separate set for each station k
set FEASIBLE_TASKS [1] :=
1 2 3 4 ;

set FEASIBLE_TASKS [2] :=
1  2  3  4  5  6  7  8  9 10 12 15 ;

set FEASIBLE_TASKS [3] :=
1  2  3  4  5  6  7  8  9 10 11 12 13 14 15 16 17 19 20 21 23 ;

set FEASIBLE_TASKS [4] :=
1  2  3  4  5  6  7  8  9 10 11 12 13 14 15 16 17 18 19 20 21 22 23 24 ;

set FEASIBLE_TASKS [5] :=
1  2  3  4  5  6  7  8  9 10 11 12 13 14 15 16 17 18 19 20 21 22 23 24 25 ;

set FEASIBLE_TASKS [6] :=
1  2  3  4  5  6  7  8  9 10 11 12 13 14 15 16 17 18 19 20 21 22 23 24 25 ;

set FEASIBLE_TASKS [7] :=
1  2  3  4  5  6  7  8  9 10 11 12 13 14 15 16 17 18 19 20 21 22 23 24 25 ;

set FEASIBLE_TASKS [8] :=
1  2  3  4  5  6  7  8  9 10 11 12 13 14 15 16 17 18 19 20 21 22 23 24 25 ;

set FEASIBLE_TASKS [9] :=
1  2  3  4  5  6  7  8  9 10 11 12 13 14 15 16 17 18 19 20 21 22 23 24 25 ;

set FEASIBLE_TASKS [10] :=
1  2  3  4  5  6  7  8  9 10 11 12 13 14 15 16 17 18 19 20 21 22 23 24 25 ;

set FEASIBLE_TASKS [11] :=
1  2  3  4  5  6  7  8  9 10 11 12 13 14 15 16 17 18 19 20 21 22 23 24 25 ;

set FEASIBLE_TASKS [12] :=
1  2  3  4  5  6  7  8  9 10 11 12 13 14 15 16 17 18 19 20 21 22 23 24 25 ;

set FEASIBLE_TASKS [13] :=
1  2  3  4  5  6  7  8  9 10 11 12 13 14 15 16 17 18 19 20 21 22 23 24 25 ;

set FEASIBLE_TASKS [14] :=
1  2  3  4  5  6  7  8  9 10 11 12 13 14 15 16 17 18 19 20 21 22 23 24 25 ;

set FEASIBLE_TASKS [15] :=
1  2  3  4  5  6  7  8  9 10 11 12 13 14 15 16 17 18 19 20 21 22 23 24 25 ;

set FEASIBLE_TASKS [16] :=
1  2  3  4  5  6  7  8  9 10 11 12 13 14 15 16 17 18 19 20 21 22 23 24 25 ;

set FEASIBLE_TASKS [17] :=
1  2  3  4  5  6  7  8  9 10 11 12 13 14 15 16 17 18 19 20 21 22 23 24 25 ;

set FEASIBLE_TASKS [18] :=
1  2  3  4  5  6  7  8  9 10 11 12 13 14 15 16 17 18 19 20 21 22 23 24 25 ;

set FEASIBLE_TASKS [19] :=
1  2  3  4  5  6  7  8  9 10 11 12 13 14 15 16 17 18 19 20 21 22 23 24 25 ;

set FEASIBLE_TASKS [20] :=
1  2  3  4  5  6  7  8  9 10 11 12 13 14 15 16 17 18 19 20 21 22 23 24 25 ;

set FEASIBLE_TASKS [21] :=
1  2  3  4  5  6  7  8  9 10 11 12 13 14 15 16 17 18 19 20 21 22 23 24 25 ;

set FEASIBLE_TASKS [22] :=
5  6  7  8  9 10 11 12 13 14 15 16 17 18 19 20 21 22 23 24 25 ;

set FEASIBLE_TASKS [23] :=
8  9 10 11 12 13 14 15 16 17 18 19 20 21 22 23 24 25 ;

set FEASIBLE_TASKS [24] :=
9 10 11 12 13 14 15 16 17 18 19 20 21 22 23 24 25 ;

set FEASIBLE_TASKS [25] :=
10 16 17 18 19 21 22 23 24 25 ;

#Parameters

#(n) The number of tasks
param num_tasks := 25 ;

#(t_i) The execution time for task i
param exec_time :=
1	  4
2	  3
3	  9
4	  5
5	  9
6	  4
7	  8
8	  7
9	  5
10	1
11	3
12	1
13	5
14	3
15	5
16	3
17	13
18	5
19	2
20	3
21	7
22	5
23	3
24	8
25	4 ;


#(t_min) The minimum of the execution times over all tasks
param min_exec_time := 1 ;

#(t_max) The maximum of the execution times over all tasks
param max_exec_time := 13 ;

#(t_sum) The sum of the execution times over all tasks
param sum_exec_time := 125 ;

#(c-underlined) The lower bound on the cycle time
param lowest_cycle_time := 13 ;

#(c-bar) The upper bound on the cycle time
param highest_cycle_time := 25 ;

#(m-underlined) The lower bound on the number of stations
param lowest_num_stations := 5 ;

#(m-bar) The upper bound on the number of stations
param highest_num_stations := 25 ;

#(tP_i) The total execution time for all predecessors of task i
param pred_exec_time :=
1	  0
2	  0
3	  7
4	  16
5	  21
6	  30
7	  34
8	  21
9	  28
10	46
11	49
12	42
13	57
14	62
15	43
16	65
17	48
18	87
19	65
20	65
21	68
22	83
23	61
24	75
25	98 ;

#(tF_i) The total execution time for all successors of task i
param succ_exec_time :=
1	  118
2	  118
3	  109
4	  104
5	  83
6	  79
7	  70
8	  53
9	  45
10	0
11	45
12	35
13	40
14	37
15	30
16	9
17	12
18	4
19	5
20	24
21	13
22	0
23	4
24	0
25	0 ;

#(E_i) The earliest possible station for task i
param earliest_station :=
1	  1
2	  1
3	  1
4	  1
5	  2
6	  2
7	  2
8	  2
9	  2
10	2
11	3
12	2
13	3
14	3
15	2
16	3
17	3
18	4
19	3
20	3
21	3
22	4
23	3
24	4
25	5 ;

#(L_i) The latest possible station for task i
param latest_station :=
1	  21
2	  21
3	  21
4	  21
5	  22
6	  22
7	  22
8	  23
9	  24
10	25
11	24
12	24
13	24
14	24
15	24
16	25
17	25
18	25
19	25
20	24
21	25
22	25
23	25
24	25
25	25 ;
